NAME          BLANK   
ROWS
 N  OBJROW
 L  R0000000
COLUMNS
    C0000000  OBJROW     -276.         R0000000  146.        
    C0000001  OBJROW     -424.         R0000000  73.         
    C0000002  OBJROW     -627.         R0000000  610.        
    C0000003  OBJROW     -823.         R0000000  72.         
    C0000004  OBJROW     -949.         R0000000  314.        
    C0000005  OBJROW     -503.         R0000000  74.         
    C0000006  OBJROW     -376.         R0000000  534.        
    C0000007  OBJROW     -708.         R0000000  140.        
    C0000008  OBJROW     -55.          R0000000  924.        
    C0000009  OBJROW     -362.         R0000000  690.        
    C0000010  OBJROW     -890.         R0000000  24.         
    C0000011  OBJROW     -946.         R0000000  985.        
    C0000012  OBJROW     -73.          R0000000  341.        
    C0000013  OBJROW     -474.         R0000000  838.        
RHS
    RHS       R0000000  16386.      
BOUNDS
 BV BOUND     C0000000  1.          
 BV BOUND     C0000001  1.          
 BV BOUND     C0000002  1.          
 BV BOUND     C0000003  1.          
 BV BOUND     C0000004  1.          
 BV BOUND     C0000005  1.          
 BV BOUND     C0000006  1.          
 BV BOUND     C0000007  1.          
 BV BOUND     C0000008  1.          
 BV BOUND     C0000009  1.          
 BV BOUND     C0000010  1.          
 BV BOUND     C0000011  1.          
 BV BOUND     C0000012  1.          
 BV BOUND     C0000013  1.          
ENDATA
